Route #1: 2 68 6 51 17 40 12 67
Route #2: 34 26 65 11 53 7 35 8 46
Route #3: 38 10 58 72 39 9 32 3 44
Route #4: 18 50 25 55 31 66 14 59
Route #5: 75 4 52 13 54 19 27 45 29
Route #6: 48 30 74 28 62 73 1 63 23 33
Route #7: 61 22 42 64 41 56 24 49 16 43
Route #8: 57 15 37 20 70 60 71 5 36 69 21 47
Cost 1091
